95
113
178
97
2
99
92
195
41
56
69
78
85
5
12
2
41
4
40
3
39
21
3
3
59
60
23
4
4
80
127
81
71
22
37
55
21
2
42
4
23
5
43
60
84
2
4
51
85
6
39
62
5
3
46
3
4
81
16
77
40
1
24
21
23
28
97
0
21
19
4
3
23
42
42
3
3
3
4
20
159
174
16
4
5
42
29
16
16
23
115
4
41
98
20
22
59
4
4
44
80
60
20
1
23
4
60
21
42
124
4
4
46
43
10
4
60
